12° run output:
{
    "Function": "kroB750.tsp",
    "Problem dimension": [
        40,
        649,
        195,
        176,
        628,
        616,
        302,
        501,
        447,
        216,
        254,
        159,
        151,
        539,
        367,
        546,
        681,
        515,
        84,
        48,
        397,
        643,
        171,
        221,
        79,
        534,
        164,
        138,
        648,
        701,
        349,
        496,
        414,
        43,
        274,
        723,
        453,
        85,
        509,
        64,
        676,
        118,
        222,
        33,
        438,
        513,
        425,
        32,
        205,
        3,
        93,
        655,
        244,
        12,
        581,
        67,
        193,
        53,
        25,
        435,
        578,
        419,
        660,
        642,
        718,
        329,
        556,
        442,
        156,
        180,
        87,
        481,
        417,
        517,
        282,
        748,
        27,
        459,
        175,
        218,
        593,
        125,
        317,
        370,
        110,
        124,
        36,
        560,
        544,
        415,
        495,
        485,
        558,
        749,
        665,
        380,
        679,
        702,
        566,
        401,
        390,
        75,
        363,
        233,
        172,
        664,
        232,
        549,
        42,
        416,
        654,
        66,
        4,
        295,
        538,
        188,
        255,
        28,
        606,
        261,
        237,
        147,
        17,
        541,
        298,
        204,
        677,
        429,
        120,
        672,
        305,
        428,
        326,
        59,
        731,
        202,
        169,
        667,
        455,
        148,
        31,
        45,
        253,
        579,
        136,
        511,
        15,
        582,
        570,
        362,
        406,
        6,
        737,
        69,
        409,
        533,
        46,
        313,
        121,
        90,
        589,
        728,
        741,
        21,
        500,
        727,
        629,
        551,
        525,
        364,
        242,
        289,
        385,
        635,
        190,
        122,
        300,
        608,
        475,
        150,
        129,
        264,
        734,
        306,
        328,
        336,
        200,
        8,
        39,
        670,
        297,
        516,
        607,
        369,
        50,
        143,
        591,
        37,
        224,
        70,
        173,
        644,
        112,
        131,
        293,
        312,
        26,
        166,
        318,
        596,
        610,
        510,
        186,
        411,
        686,
        154,
        117,
        24,
        145,
        105,
        722,
        421,
        441,
        640,
        211,
        10,
        693,
        626,
        340,
        518,
        73,
        674,
        691,
        535,
        638,
        443,
        463,
        72,
        571,
        290,
        552,
        407,
        430,
        424,
        462,
        68,
        422,
        160,
        464,
        645,
        141,
        528,
        320,
        418,
        622,
        732,
        696,
        690,
        303,
        38,
        41,
        252,
        399,
        267,
        185,
        283,
        387,
        568,
        584,
        88,
        240,
        512,
        639,
        548,
        52,
        247,
        177,
        536,
        327,
        325,
        97,
        133,
        304,
        450,
        142,
        351,
        391,
        554,
        514,
        265,
        451,
        612,
        210,
        258,
        229,
        569,
        266,
        130,
        223,
        366,
        30,
        382,
        334,
        82,
        402,
        651,
        356,
        705,
        689,
        684,
        174,
        287,
        641,
        86,
        524,
        268,
        310,
        263,
        208,
        482,
        245,
        167,
        206,
        503,
        466,
        577,
        603,
        137,
        452,
        341,
        375,
        707,
        662,
        488,
        468,
        675,
        742,
        331,
        547,
        20,
        725,
        631,
        76,
        101,
        212,
        246,
        683,
        405,
        198,
        433,
        711,
        719,
        383,
        106,
        747,
        703,
        168,
        77,
        540,
        436,
        184,
        658,
        583,
        0,
        494,
        316,
        157,
        434,
        269,
        484,
        217,
        271,
        286,
        625,
        687,
        95,
        698,
        292,
        374,
        324,
        183,
        652,
        337,
        291,
        360,
        16,
        384,
        44,
        191,
        559,
        736,
        47,
        609,
        1,
        594,
        712,
        392,
        412,
        697,
        521,
        555,
        505,
        182,
        388,
        498,
        56,
        288,
        564,
        694,
        272,
        733,
        226,
        456,
        627,
        281,
        400,
        314,
        365,
        497,
        153,
        668,
        114,
        315,
        565,
        350,
        729,
        561,
        680,
        685,
        71,
        353,
        410,
        9,
        585,
        139,
        98,
        11,
        178,
        613,
        483,
        18,
        474,
        319,
        427,
        413,
        716,
        562,
        632,
        49,
        301,
        51,
        504,
        633,
        359,
        276,
        386,
        127,
        574,
        239,
        467,
        5,
        726,
        545,
        460,
        209,
        107,
        573,
        499,
        448,
        636,
        720,
        201,
        580,
        611,
        219,
        22,
        379,
        83,
        704,
        158,
        109,
        454,
        189,
        225,
        163,
        487,
        91,
        531,
        140,
        170,
        330,
        262,
        395,
        273,
        526,
        408,
        61,
        746,
        621,
        605,
        278,
        65,
        74,
        57,
        231,
        646,
        471,
        203,
        348,
        361,
        280,
        296,
        14,
        620,
        486,
        650,
        530,
        19,
        617,
        394,
        623,
        279,
        576,
        439,
        492,
        682,
        527,
        508,
        144,
        478,
        587,
        710,
        489,
        228,
        553,
        243,
        54,
        78,
        735,
        92,
        708,
        111,
        657,
        196,
        490,
        134,
        35,
        634,
        432,
        260,
        671,
        393,
        270,
        257,
        235,
        446,
        238,
        115,
        104,
        600,
        80,
        522,
        470,
        469,
        214,
        709,
        230,
        373,
        89,
        2,
        715,
        381,
        663,
        116,
        187,
        126,
        519,
        398,
        669,
        55,
        100,
        34,
        347,
        256,
        311,
        661,
        721,
        248,
        404,
        102,
        132,
        322,
        695,
        602,
        241,
        275,
        502,
        250,
        192,
        199,
        62,
        542,
        94,
        673,
        181,
        23,
        344,
        557,
        251,
        358,
        299,
        346,
        149,
        618,
        96,
        692,
        465,
        457,
        162,
        445,
        119,
        738,
        740,
        599,
        588,
        473,
        277,
        307,
        308,
        165,
        590,
        604,
        335,
        345,
        220,
        194,
        529,
        60,
        624,
        338,
        444,
        332,
        342,
        357,
        480,
        431,
        372,
        745,
        619,
        207,
        507,
        103,
        477,
        595,
        323,
        376,
        743,
        472,
        321,
        99,
        630,
        396,
        161,
        420,
        688,
        128,
        355,
        653,
        259,
        532,
        29,
        378,
        135,
        7,
        213,
        724,
        601,
        58,
        437,
        572,
        81,
        155,
        227,
        479,
        352,
        659,
        403,
        294,
        543,
        389,
        368,
        537,
        615,
        567,
        309,
        520,
        123,
        236,
        108,
        550,
        461,
        678,
        458,
        354,
        440,
        637,
        506,
        343,
        215,
        179,
        146,
        597,
        586,
        493,
        647,
        744,
        700,
        377,
        614,
        249,
        285,
        523,
        476,
        717,
        113,
        592,
        656,
        339,
        371,
        284,
        730,
        598,
        699,
        423,
        563,
        491,
        197,
        449,
        739,
        575,
        152,
        426,
        706,
        713,
        714,
        63,
        333,
        234,
        13,
        666
    ],
    "Global Optimum": 0,
    "Algorithm": "Genetic algorithm",
    "Parameters": {
        "population": 30,
        "offspring": 30,
        "mutation probability": 0.0013333333333333333,
        "crossover probability": 0.9
    },
    "Fitness": 910642,
    "Solution": [
        40,
        649,
        195,
        176,
        628,
        616,
        302,
        501,
        447,
        216,
        254,
        159,
        151,
        539,
        367,
        546,
        681,
        515,
        84,
        48,
        397,
        643,
        171,
        221,
        79,
        534,
        164,
        138,
        648,
        701,
        349,
        496,
        414,
        43,
        274,
        723,
        453,
        85,
        509,
        64,
        676,
        118,
        222,
        33,
        438,
        513,
        425,
        32,
        205,
        3,
        93,
        655,
        244,
        12,
        581,
        67,
        193,
        53,
        25,
        435,
        578,
        419,
        660,
        642,
        718,
        329,
        556,
        442,
        156,
        180,
        87,
        481,
        417,
        517,
        282,
        748,
        27,
        459,
        175,
        218,
        593,
        125,
        317,
        370,
        110,
        124,
        36,
        560,
        544,
        415,
        495,
        485,
        558,
        749,
        665,
        380,
        679,
        702,
        566,
        401,
        390,
        75,
        363,
        233,
        172,
        664,
        232,
        549,
        42,
        416,
        654,
        66,
        4,
        295,
        538,
        188,
        255,
        28,
        606,
        261,
        237,
        147,
        17,
        541,
        298,
        204,
        677,
        429,
        120,
        672,
        305,
        428,
        326,
        59,
        731,
        202,
        169,
        667,
        455,
        148,
        31,
        45,
        253,
        579,
        136,
        511,
        15,
        582,
        570,
        362,
        406,
        6,
        737,
        69,
        409,
        533,
        46,
        313,
        121,
        90,
        589,
        728,
        741,
        21,
        500,
        727,
        629,
        551,
        525,
        364,
        242,
        289,
        385,
        635,
        190,
        122,
        300,
        608,
        475,
        150,
        129,
        264,
        734,
        306,
        328,
        336,
        200,
        8,
        39,
        670,
        297,
        516,
        607,
        369,
        50,
        143,
        591,
        37,
        224,
        70,
        173,
        644,
        112,
        131,
        293,
        312,
        26,
        166,
        318,
        596,
        610,
        510,
        186,
        411,
        686,
        154,
        117,
        24,
        145,
        105,
        722,
        421,
        441,
        640,
        211,
        10,
        693,
        626,
        340,
        518,
        73,
        674,
        691,
        535,
        638,
        443,
        463,
        72,
        571,
        290,
        552,
        407,
        430,
        424,
        462,
        68,
        422,
        160,
        464,
        645,
        141,
        528,
        320,
        418,
        622,
        732,
        696,
        690,
        303,
        38,
        41,
        252,
        399,
        267,
        185,
        283,
        387,
        568,
        584,
        88,
        240,
        512,
        639,
        548,
        52,
        247,
        177,
        536,
        327,
        325,
        97,
        133,
        304,
        450,
        142,
        351,
        391,
        554,
        514,
        265,
        451,
        612,
        210,
        258,
        229,
        569,
        266,
        130,
        223,
        366,
        30,
        382,
        334,
        82,
        402,
        651,
        356,
        705,
        689,
        684,
        174,
        287,
        641,
        86,
        524,
        268,
        310,
        263,
        208,
        482,
        245,
        167,
        206,
        503,
        466,
        577,
        603,
        137,
        452,
        341,
        375,
        707,
        662,
        488,
        468,
        675,
        742,
        331,
        547,
        20,
        725,
        631,
        76,
        101,
        212,
        246,
        683,
        405,
        198,
        433,
        711,
        719,
        383,
        106,
        747,
        703,
        168,
        77,
        540,
        436,
        184,
        658,
        583,
        0,
        494,
        316,
        157,
        434,
        269,
        484,
        217,
        271,
        286,
        625,
        687,
        95,
        698,
        292,
        374,
        324,
        183,
        652,
        337,
        291,
        360,
        16,
        384,
        44,
        191,
        559,
        736,
        47,
        609,
        1,
        594,
        712,
        392,
        412,
        697,
        521,
        555,
        505,
        182,
        388,
        498,
        56,
        288,
        564,
        694,
        272,
        733,
        226,
        456,
        627,
        281,
        400,
        314,
        365,
        497,
        153,
        668,
        114,
        315,
        565,
        350,
        729,
        561,
        680,
        685,
        71,
        353,
        410,
        9,
        585,
        139,
        98,
        11,
        178,
        613,
        483,
        18,
        474,
        319,
        427,
        413,
        716,
        562,
        632,
        49,
        301,
        51,
        504,
        633,
        359,
        276,
        386,
        127,
        574,
        239,
        467,
        5,
        726,
        545,
        460,
        209,
        107,
        573,
        499,
        448,
        636,
        720,
        201,
        580,
        611,
        219,
        22,
        379,
        83,
        704,
        158,
        109,
        454,
        189,
        225,
        163,
        487,
        91,
        531,
        140,
        170,
        330,
        262,
        395,
        273,
        526,
        408,
        61,
        746,
        621,
        605,
        278,
        65,
        74,
        57,
        231,
        646,
        471,
        203,
        348,
        361,
        280,
        296,
        14,
        620,
        486,
        650,
        530,
        19,
        617,
        394,
        623,
        279,
        576,
        439,
        492,
        682,
        527,
        508,
        144,
        478,
        587,
        710,
        489,
        228,
        553,
        243,
        54,
        78,
        735,
        92,
        708,
        111,
        657,
        196,
        490,
        134,
        35,
        634,
        432,
        260,
        671,
        393,
        270,
        257,
        235,
        446,
        238,
        115,
        104,
        600,
        80,
        522,
        470,
        469,
        214,
        709,
        230,
        373,
        89,
        2,
        715,
        381,
        663,
        116,
        187,
        126,
        519,
        398,
        669,
        55,
        100,
        34,
        347,
        256,
        311,
        661,
        721,
        248,
        404,
        102,
        132,
        322,
        695,
        602,
        241,
        275,
        502,
        250,
        192,
        199,
        62,
        542,
        94,
        673,
        181,
        23,
        344,
        557,
        251,
        358,
        299,
        346,
        149,
        618,
        96,
        692,
        465,
        457,
        162,
        445,
        119,
        738,
        740,
        599,
        588,
        473,
        277,
        307,
        308,
        165,
        590,
        604,
        335,
        345,
        220,
        194,
        529,
        60,
        624,
        338,
        444,
        332,
        342,
        357,
        480,
        431,
        372,
        745,
        619,
        207,
        507,
        103,
        477,
        595,
        323,
        376,
        743,
        472,
        321,
        99,
        630,
        396,
        161,
        420,
        688,
        128,
        355,
        653,
        259,
        532,
        29,
        378,
        135,
        7,
        213,
        724,
        601,
        58,
        437,
        572,
        81,
        155,
        227,
        479,
        352,
        659,
        403,
        294,
        543,
        389,
        368,
        537,
        615,
        567,
        309,
        520,
        123,
        236,
        108,
        550,
        461,
        678,
        458,
        354,
        440,
        637,
        506,
        343,
        215,
        179,
        146,
        597,
        586,
        493,
        647,
        744,
        700,
        377,
        614,
        249,
        285,
        523,
        476,
        717,
        113,
        592,
        656,
        339,
        371,
        284,
        730,
        598,
        699,
        423,
        563,
        491,
        197,
        449,
        739,
        575,
        152,
        426,
        706,
        713,
        714,
        63,
        333,
        234,
        13,
        666
    ],
    "Nb of functions evaluations": 400020,
    "Computational time in seconds": 3177.205718278885,
    "Stopping criterion in evaluations": 400000
}